p wcnf 166 249 250 
1 -162 133 0 
1 -75 106 0 
1 128 -137 0 
1 -24 -44 0 
1 -138 106 0 
1 -73 104 0 
1 -164 95 0 
1 44 129 0 
1 66 -146 0 
1 137 88 0 
1 21 7 0 
1 -152 -5 0 
1 41 16 0 
1 -80 49 0 
1 96 -95 0 
1 48 89 0 
1 -89 85 0 
1 -50 19 0 
1 -164 107 0 
1 -106 16 0 
1 65 -69 0 
1 80 32 0 
1 -50 115 0 
1 -164 -34 0 
1 91 -64 0 
1 17 -75 0 
1 -4 -137 0 
1 -94 46 0 
1 -42 51 0 
1 -118 37 0 
1 -92 -118 0 
1 30 84 0 
1 -37 49 0 
1 -81 83 0 
1 123 155 0 
1 -97 -90 0 
1 69 -144 0 
1 -1 -88 0 
1 25 -19 0 
1 113 -40 0 
1 -145 -112 0 
1 151 86 0 
1 -33 -157 0 
1 -104 7 0 
1 -166 33 0 
1 -12 -160 0 
1 60 -99 0 
1 -118 69 0 
1 -1 -64 0 
1 50 -20 0 
1 -160 -152 0 
1 79 125 0 
1 101 106 0 
1 7 -22 0 
1 -41 -92 0 
1 -75 61 0 
1 50 32 0 
1 -143 59 0 
1 82 -30 0 
1 -138 -60 0 
1 -73 47 0 
1 52 135 0 
1 -110 69 0 
1 -130 -62 0 
1 -123 -1 0 
1 68 -14 0 
1 -130 -119 0 
1 57 123 0 
1 -128 -132 0 
1 -43 22 0 
1 -16 -163 0 
1 -27 144 0 
1 87 120 0 
1 -141 129 0 
1 -91 108 0 
1 -93 -44 0 
1 -57 -134 0 
1 64 25 0 
1 12 -1 0 
1 3 -30 0 
1 61 -19 0 
1 105 29 0 
1 -138 -108 0 
1 -104 22 0 
1 -80 -53 0 
1 -20 119 0 
1 155 67 0 
1 -55 -17 0 
1 55 81 0 
1 -75 -113 0 
1 -64 -92 0 
1 -67 -16 0 
1 66 -3 0 
1 138 -119 0 
1 23 67 0 
1 86 -45 0 
1 59 -85 0 
1 -3 -99 0 
1 -121 140 0 
1 -36 -142 0 
1 -112 -71 0 
1 -98 -108 0 
1 98 -164 0 
1 62 144 0 
1 -31 24 0 
1 -129 -162 0 
1 -105 -156 0 
1 158 -161 0 
1 -154 44 0 
1 -166 -113 0 
1 -21 -91 0 
1 -35 -34 0 
1 -112 130 0 
1 103 149 0 
1 -153 21 0 
1 -97 -116 0 
1 76 144 0 
1 -83 100 0 
1 -109 64 0 
1 88 76 0 
1 121 -74 0 
1 -32 34 0 
1 -76 62 0 
1 160 38 0 
1 -71 42 0 
1 -131 85 0 
1 -80 11 0 
1 159 17 0 
1 50 155 0 
1 -149 -112 0 
1 85 -90 0 
1 60 -25 0 
1 -166 139 0 
1 -149 32 0 
1 21 -84 0 
1 58 41 0 
1 113 -143 0 
1 -149 152 0 
1 28 -141 0 
1 -153 101 0 
1 -25 57 0 
1 43 -146 0 
1 -76 91 0 
1 -104 91 0 
1 -110 124 0 
1 -166 -62 0 
1 -139 -42 0 
1 -66 -53 0 
1 -90 96 0 
1 75 -131 0 
1 -48 -11 0 
1 47 -159 0 
1 -96 -66 0 
1 142 -105 0 
1 -91 35 0 
1 54 -29 0 
1 27 -77 0 
1 -78 -148 0 
1 -78 134 0 
1 -39 138 0 
1 3 70 0 
1 153 -76 0 
1 71 160 0 
1 -160 98 0 
1 124 -148 0 
1 51 49 0 
1 33 89 0 
1 -127 -136 0 
1 138 -122 0 
1 139 -145 0 
1 -162 -26 0 
1 112 -108 0 
1 69 -104 0 
1 137 -6 0 
1 164 -89 0 
1 73 41 0 
1 -7 152 0 
1 -4 -145 0 
1 117 148 0 
1 70 -16 0 
1 65 34 0 
1 -156 133 0 
1 57 1 0 
1 -160 111 0 
1 120 -132 0 
1 -157 -41 0 
1 -85 -120 0 
1 -44 -20 0 
1 -109 28 0 
1 89 -112 0 
1 -66 -117 0 
1 -117 -84 0 
1 -143 158 0 
1 -59 46 0 
1 144 -155 0 
1 4 -132 0 
1 137 54 0 
1 127 -38 0 
1 -53 -92 0 
1 -130 45 0 
1 -27 81 0 
1 -86 -63 0 
1 -111 -78 0 
1 103 -110 0 
1 100 -30 0 
1 45 -134 0 
1 -108 -25 0 
1 39 -137 0 
1 -77 -162 0 
1 145 -147 0 
1 163 14 0 
1 74 29 0 
1 69 -102 0 
1 147 -126 0 
1 -16 -74 0 
1 -36 -70 0 
1 -115 -54 0 
1 65 -154 0 
1 -46 -120 0 
1 121 56 0 
1 93 -50 0 
1 -12 -21 0 
1 122 -125 0 
1 -124 46 0 
1 25 -152 0 
1 -17 86 0 
1 60 24 0 
1 138 149 0 
1 24 -63 0 
1 -166 -8 0 
1 126 75 0 
1 30 121 0 
1 -48 -59 0 
1 -24 15 0 
1 83 126 0 
1 -75 56 0 
1 -1 -109 0 
1 32 -26 0 
1 141 28 0 
1 -155 53 0 
1 93 -106 0 
1 -4 -157 0 
1 -10 48 0 
1 -118 -159 0 
1 143 -12 0 
1 -92 -20 0 
1 -95 -12 0 
1 12 -69 0 
1 -34 83 0 
